qbf_easy_train/easy_4611_UNSAT.qdimacs
p cnf 38 106
a 8 26 5 0
e 1 2 3 4 6 7 9 10 11 12 13 14 15 16 17 18 19 20 21 22 23 24 25 27 28 29 30 31 32 33 34 35 36 37 38 0
-4 1 0
-4 -3 0
-1 3 4 0
-2 -4 -5 0
2 4 -5 0
-2 4 5 0
2 -4 5 0
-6 -1 0
-6 -5 0
1 5 6 0
8 6 0
8 -7 0
-6 7 -8 0
7 -2 -9 0
-7 2 -9 0
7 2 9 0
-7 -2 9 0
-11 -9 0
-11 10 0
9 -10 11 0
13 9 0
13 -12 0
-9 12 -13 0
-14 11 0
-14 -13 0
-11 13 14 0
15 -8 0
15 14 0
8 -14 -15 0
-16 3 0
-16 7 0
-3 -7 16 0
-17 16 0
-17 -12 0
-16 12 17 0
18 12 0
18 16 0
-12 -16 -18 0
-19 7 -20 0
19 -7 -20 0
-19 -7 20 0
19 7 20 0
21 20 0
21 7 0
-20 -7 -21 0
-22 18 0
-22 -21 0
-18 21 22 0
23 -17 0
23 -22 0
17 22 -23 0
6 16 -24 0
-6 -16 -24 0
6 -16 24 0
-6 16 24 0
3 -25 0
-3 -25 0
-26 -1 0
-26 -20 0
1 20 26 0
27 -26 0
27 -18 0
26 18 -27 0
-28 -5 0
-28 -2 0
5 2 28 0
29 -27 0
29 28 0
27 -28 -29 0
25 29 -30 0
-25 -29 -30 0
25 -29 30 0
-25 29 30 0
-19 3 -31 0
19 -3 -31 0
-19 -3 31 0
19 3 31 0
33 3 0
33 -32 0
-3 32 -33 0
34 31 0
34 33 0
-31 -33 -34 0
-35 -30 0
-35 34 0
30 -34 35 0
36 24 0
36 -35 0
-24 35 -36 0
37 -23 0
37 -36 0
23 36 -37 0
-38 15 0
-38 37 0
-15 -37 38 0
-36 -38 2 34 18 -19 0
-31 -22 7 0
-32 33 11 -23 5 -2 0
15 -25 3 -28 0
-35 -7 23 26 11 17 8 0
-33 -22 8 -28 1 0
-23 5 -22 -8 37 27 0
-22 -27 -30 11 35 17 -10 0
18 35 12 -24 -34 2 37 -38 0
-36 -8 -14 -34 3 -20 0
38 0
