sat_easy_train/easy_4611_UNSAT.dimacs
p cnf 121 409
-5 -3 0
-5 4 0
3 -4 5 0
6 2 0
6 5 0
-2 -5 -6 0
-7 -1 0
-7 -6 0
1 6 7 0
-9 -7 0
-9 8 0
7 -8 9 0
10 -4 0
10 7 0
4 -7 -10 0
-13 -11 0
-13 -12 0
11 12 13 0
13 14 -15 0
-13 -14 -15 0
13 -14 15 0
-13 14 15 0
17 14 0
17 -16 0
-14 16 -17 0
18 -16 0
18 17 0
16 -17 -18 0
-15 18 -19 0
15 -18 -19 0
-15 -18 19 0
15 18 19 0
21 2 0
21 -20 0
-2 20 -21 0
-22 19 0
-22 -21 0
-19 21 22 0
-24 -14 0
-24 -23 0
14 23 24 0
-24 -16 -25 0
24 16 -25 0
-24 16 25 0
24 -16 25 0
-26 -20 0
-26 -25 0
20 25 26 0
8 -26 -27 0
-8 26 -27 0
8 26 27 0
-8 -26 27 0
-28 24 0
-28 -27 0
-24 27 28 0
30 -14 0
30 4 0
14 -4 -30 0
-1 12 -31 0
1 -12 -31 0
-1 -12 31 0
1 12 31 0
-32 6 0
-32 -31 0
-6 31 32 0
-33 -30 0
-33 32 0
30 -32 33 0
-12 -34 0
12 -34 0
-35 -21 0
-35 31 0
21 -31 35 0
-36 34 0
-36 35 0
-34 -35 36 0
38 -36 0
38 37 0
36 -37 -38 0
39 33 0
39 38 0
-33 -38 -39 0
-40 -29 0
-40 39 0
29 -39 40 0
-28 -40 -41 0
28 40 -41 0
-28 40 41 0
28 -40 41 0
22 -41 -42 0
-22 41 -42 0
22 41 42 0
-22 -41 42 0
-43 10 0
-43 42 0
-10 -42 43 0
44 16 -45 0
-44 -16 -45 0
44 -16 45 0
-44 16 45 0
-46 45 0
-46 34 0
-45 -34 46 0
-47 -21 0
-47 46 0
21 -46 47 0
-48 1 0
-48 -26 0
-1 26 48 0
49 -47 0
49 48 0
47 -48 -49 0
50 -19 0
50 -19 0
19 -50 0
-51 49 0
-51 -50 0
-49 50 51 0
52 43 0
52 -51 0
-43 51 -52 0
53 9 0
53 -52 0
-9 52 -53 0
-5 54 0
5 54 0
-54 2 -55 0
54 -2 -55 0
-54 -2 55 0
54 2 55 0
-56 53 0
-56 55 0
-53 -55 56 0
-8 -14 -57 0
8 14 -57 0
-8 14 57 0
8 -14 57 0
12 16 -58 0
-12 -16 -58 0
12 -16 58 0
-12 16 58 0
59 57 0
59 58 0
-57 -58 -59 0
-60 -59 0
-60 -23 0
59 23 60 0
56 -60 -61 0
-56 60 -61 0
56 60 61 0
-56 -60 61 0
-12 37 -62 0
12 -37 -62 0
-12 -37 62 0
12 37 62 0
62 -63 -64 0
-62 63 -64 0
62 63 64 0
-62 -63 64 0
-65 11 0
-65 -16 0
-11 16 65 0
20 -65 -66 0
-20 65 -66 0
20 65 66 0
-20 -65 66 0
-67 31 0
-67 66 0
-31 -66 67 0
-68 64 0
-68 -67 0
-64 67 68 0
-69 61 0
-69 -68 0
-61 68 69 0
-70 46 0
-70 15 0
-46 -15 70 0
71 37 0
71 -45 0
-37 45 -71 0
72 -5 0
72 -71 0
5 71 -72 0
-72 20 -73 0
72 -20 -73 0
-72 -20 73 0
72 20 73 0
-73 11 -74 0
73 -11 -74 0
-73 -11 74 0
73 11 74 0
-70 -74 -75 0
70 74 -75 0
-70 74 75 0
70 -74 75 0
37 1 -76 0
-37 -1 -76 0
37 -1 76 0
-37 1 76 0
30 -8 -77 0
-30 8 -77 0
30 8 77 0
-30 -8 77 0
78 -57 0
78 -77 0
57 77 -78 0
76 78 -79 0
-76 -78 -79 0
76 -78 79 0
-76 78 79 0
16 11 -80 0
-16 -11 -80 0
16 -11 80 0
-16 11 80 0
-48 -80 -81 0
48 80 -81 0
-48 80 81 0
48 -80 81 0
-16 -34 -82 0
16 34 -82 0
-16 34 82 0
16 -34 82 0
-83 -63 0
-83 82 0
63 -82 83 0
-81 -83 -84 0
81 83 -84 0
-81 83 84 0
81 -83 84 0
79 -84 -85 0
-79 84 -85 0
79 84 85 0
-79 -84 85 0
-75 -85 -86 0
75 85 -86 0
-75 85 86 0
75 -85 86 0
87 -63 0
87 12 0
63 -12 -87 0
33 87 -88 0
-33 -87 -88 0
33 -87 88 0
-33 87 88 0
-88 -58 -89 0
88 58 -89 0
-88 58 89 0
88 -58 89 0
-90 57 0
-90 -15 0
-57 15 90 0
89 90 -91 0
-89 -90 -91 0
89 -90 91 0
-89 90 91 0
92 -7 0
92 -12 0
7 12 -92 0
91 92 -93 0
-91 -92 -93 0
91 -92 93 0
-91 92 93 0
-14 -1 -94 0
14 1 -94 0
-14 1 94 0
14 -1 94 0
95 -5 0
95 18 0
5 -18 -95 0
-96 -94 0
-96 -95 0
94 95 96 0
97 93 0
97 -96 0
-93 96 -97 0
-98 86 0
-98 97 0
-86 -97 98 0
12 -16 -99 0
-12 16 -99 0
12 16 99 0
-12 -16 99 0
57 -100 -101 0
-57 100 -101 0
57 100 101 0
-57 -100 101 0
99 -101 -102 0
-99 101 -102 0
99 101 102 0
-99 -101 102 0
-103 34 0
-103 100 0
-34 -100 103 0
-82 77 -104 0
82 -77 -104 0
-82 -77 104 0
82 77 104 0
-26 12 -105 0
26 -12 -105 0
-26 -12 105 0
26 12 105 0
106 -14 0
106 -105 0
14 105 -106 0
-104 -106 -107 0
104 106 -107 0
-104 106 107 0
104 -106 107 0
108 103 0
108 -107 0
-103 107 -108 0
-45 17 -109 0
45 -17 -109 0
-45 -17 109 0
45 17 109 0
-110 24 0
-110 13 0
-24 -13 110 0
-111 -110 0
-111 -4 0
110 4 111 0
112 -109 0
112 -111 0
109 111 -112 0
113 -34 0
113 76 0
34 -76 -113 0
114 112 0
114 113 0
-112 -113 -114 0
108 114 -115 0
-108 -114 -115 0
108 -114 115 0
-108 114 115 0
-116 -102 0
-116 -115 0
102 115 116 0
-98 -116 -117 0
98 116 -117 0
-98 116 117 0
98 -116 117 0
118 -44 0
118 -66 0
44 66 -118 0
119 2 0
119 -118 0
-2 118 -119 0
117 119 -120 0
-117 -119 -120 0
117 -119 120 0
-117 119 120 0
-121 69 0
-121 -120 0
-69 120 121 0
-99 -6 107 0
-113 117 70 0
-18 49 98 -101 -44 -25 0
-113 76 -42 -36 84 -112 0
108 114 -50 52 55 0
51 6 22 -121 0
47 -1 21 0
-91 9 107 -50 0
-61 24 75 -14 -19 0
-30 79 77 58 0
41 -72 -27 98 0
-113 -74 0
85 13 0
-114 100 109 -6 0
-110 22 0
112 -15 74 -68 78 0
-46 -42 120 76 60 0
-114 -74 78 -104 51 -82 0
-61 20 22 58 -28 0
-113 -51 -97 0
100 -88 0
96 71 0
-35 107 0
100 -17 7 -32 -26 19 0
-17 41 -102 3 0
19 23 -17 -109 45 32 0
62 80 -119 -121 0
-100 42 50 -83 0
-65 -55 0
20 -100 86 0
-50 -108 0
102 65 0
-38 -10 -44 23 -101 0
-10 118 -108 105 0
-26 -83 9 -47 85 118 0
-93 87 35 30 69 74 0
109 -53 -8 67 0
97 87 -29 0
-111 96 -26 42 -31 84 0
-87 90 3 5 -107 -6 0
64 22 69 -25 -33 0
-121 47 30 -110 3 0
-96 -114 94 74 -105 0
33 -70 0
118 75 0
89 -25 95 113 76 0
-66 90 0
-31 44 14 -13 0
14 100 13 0
90 24 0
8 20 -99 79 -91 0
89 116 44 -101 0
43 72 62 121 0
121 0
